; benchmark generated from python API
(set-info :status unknown)
(declare-fun cell_1_3 () Int)
(declare-fun cell_1_4 () Int)
(declare-fun cell_2_7 () Int)
(declare-fun cell_2_8 () Int)
(declare-fun cell_3_1 () Int)
(declare-fun cell_3_6 () Int)
(declare-fun cell_4_2 () Int)
(declare-fun cell_4_3 () Int)
(declare-fun cell_5_6 () Int)
(declare-fun cell_5_9 () Int)
(declare-fun cell_6_4 () Int)
(declare-fun cell_6_8 () Int)
(declare-fun cell_7_5 () Int)
(declare-fun cell_8_2 () Int)
(declare-fun cell_9_9 () Int)
(declare-fun cell_1_1 () Int)
(declare-fun cell_2_1 () Int)
(declare-fun cell_4_1 () Int)
(declare-fun cell_5_1 () Int)
(declare-fun cell_6_1 () Int)
(declare-fun cell_7_1 () Int)
(declare-fun cell_8_1 () Int)
(declare-fun cell_9_1 () Int)
(declare-fun cell_1_2 () Int)
(declare-fun cell_2_2 () Int)
(declare-fun cell_3_2 () Int)
(declare-fun cell_5_2 () Int)
(declare-fun cell_6_2 () Int)
(declare-fun cell_7_2 () Int)
(declare-fun cell_9_2 () Int)
(declare-fun cell_2_3 () Int)
(declare-fun cell_3_3 () Int)
(declare-fun cell_5_3 () Int)
(declare-fun cell_6_3 () Int)
(declare-fun cell_7_3 () Int)
(declare-fun cell_8_3 () Int)
(declare-fun cell_9_3 () Int)
(declare-fun cell_2_4 () Int)
(declare-fun cell_3_4 () Int)
(declare-fun cell_4_4 () Int)
(declare-fun cell_5_4 () Int)
(declare-fun cell_7_4 () Int)
(declare-fun cell_8_4 () Int)
(declare-fun cell_9_4 () Int)
(declare-fun cell_1_5 () Int)
(declare-fun cell_2_5 () Int)
(declare-fun cell_3_5 () Int)
(declare-fun cell_4_5 () Int)
(declare-fun cell_5_5 () Int)
(declare-fun cell_6_5 () Int)
(declare-fun cell_8_5 () Int)
(declare-fun cell_9_5 () Int)
(declare-fun cell_1_6 () Int)
(declare-fun cell_2_6 () Int)
(declare-fun cell_4_6 () Int)
(declare-fun cell_6_6 () Int)
(declare-fun cell_7_6 () Int)
(declare-fun cell_8_6 () Int)
(declare-fun cell_9_6 () Int)
(declare-fun cell_1_7 () Int)
(declare-fun cell_3_7 () Int)
(declare-fun cell_4_7 () Int)
(declare-fun cell_5_7 () Int)
(declare-fun cell_6_7 () Int)
(declare-fun cell_7_7 () Int)
(declare-fun cell_8_7 () Int)
(declare-fun cell_9_7 () Int)
(declare-fun cell_1_8 () Int)
(declare-fun cell_3_8 () Int)
(declare-fun cell_4_8 () Int)
(declare-fun cell_5_8 () Int)
(declare-fun cell_7_8 () Int)
(declare-fun cell_8_8 () Int)
(declare-fun cell_9_8 () Int)
(declare-fun cell_1_9 () Int)
(declare-fun cell_2_9 () Int)
(declare-fun cell_3_9 () Int)
(declare-fun cell_4_9 () Int)
(declare-fun cell_6_9 () Int)
(declare-fun cell_7_9 () Int)
(declare-fun cell_8_9 () Int)
(assert
 (= cell_1_3 2))
(assert
 (= cell_1_4 1))
(assert
 (= cell_2_7 1))
(assert
 (= cell_2_8 2))
(assert
 (= cell_3_1 1))
(assert
 (= cell_3_6 2))
(assert
 (= cell_4_2 2))
(assert
 (= cell_4_3 1))
(assert
 (= cell_5_6 1))
(assert
 (= cell_5_9 2))
(assert
 (= cell_6_4 2))
(assert
 (= cell_6_8 1))
(assert
 (= cell_7_5 1))
(assert
 (= cell_8_2 1))
(assert
 (= cell_9_9 1))
(assert
 (let (($x163 (= cell_1_1 9)))
 (let (($x653 (= cell_1_1 8)))
 (let (($x473 (= cell_1_1 7)))
 (let (($x1192 (= cell_1_1 6)))
 (let (($x2753 (= cell_1_1 5)))
 (let (($x3378 (= cell_1_1 4)))
 (let (($x2906 (= cell_1_1 3)))
 (let (($x993 (= cell_1_1 2)))
 (let (($x1969 (= cell_1_1 1)))
 (or $x1969 $x993 $x2906 $x3378 $x2753 $x1192 $x473 $x653 $x163)))))))))))
(assert
 (let (($x1998 (= cell_2_1 9)))
 (let (($x3741 (= cell_2_1 8)))
 (let (($x2275 (= cell_2_1 7)))
 (let (($x2747 (= cell_2_1 6)))
 (let (($x1017 (= cell_2_1 5)))
 (let (($x1358 (= cell_2_1 4)))
 (let (($x1550 (= cell_2_1 3)))
 (let (($x3833 (= cell_2_1 2)))
 (let (($x2989 (= cell_2_1 1)))
 (or $x2989 $x3833 $x1550 $x1358 $x1017 $x2747 $x2275 $x3741 $x1998)))))))))))
(assert
 (let (($x2984 (= cell_3_1 1)))
 (or $x2984 (= cell_3_1 2) (= cell_3_1 3) (= cell_3_1 4) (= cell_3_1 5) (= cell_3_1 6) (= cell_3_1 7) (= cell_3_1 8) (= cell_3_1 9))))
(assert
 (let (($x9290 (= cell_4_1 9)))
 (let (($x314 (= cell_4_1 8)))
 (let (($x3075 (= cell_4_1 7)))
 (let (($x1565 (= cell_4_1 6)))
 (let (($x2528 (= cell_4_1 5)))
 (let (($x2246 (= cell_4_1 4)))
 (let (($x2977 (= cell_4_1 3)))
 (let (($x475 (= cell_4_1 2)))
 (let (($x3810 (= cell_4_1 1)))
 (or $x3810 $x475 $x2977 $x2246 $x2528 $x1565 $x3075 $x314 $x9290)))))))))))
(assert
 (let (($x3481 (= cell_5_1 9)))
 (let (($x1888 (= cell_5_1 8)))
 (let (($x2435 (= cell_5_1 7)))
 (let (($x532 (= cell_5_1 6)))
 (let (($x5049 (= cell_5_1 5)))
 (let (($x1371 (= cell_5_1 4)))
 (let (($x171 (= cell_5_1 3)))
 (let (($x3228 (= cell_5_1 2)))
 (let (($x1700 (= cell_5_1 1)))
 (or $x1700 $x3228 $x171 $x1371 $x5049 $x532 $x2435 $x1888 $x3481)))))))))))
(assert
 (let (($x14 (= cell_6_1 9)))
 (let (($x1917 (= cell_6_1 8)))
 (let (($x2863 (= cell_6_1 7)))
 (let (($x353 (= cell_6_1 6)))
 (let (($x6126 (= cell_6_1 5)))
 (let (($x1060 (= cell_6_1 4)))
 (let (($x986 (= cell_6_1 3)))
 (let (($x978 (= cell_6_1 2)))
 (let (($x1584 (= cell_6_1 1)))
 (or $x1584 $x978 $x986 $x1060 $x6126 $x353 $x2863 $x1917 $x14)))))))))))
(assert
 (let (($x284 (= cell_7_1 9)))
 (let (($x792 (= cell_7_1 8)))
 (let (($x1124 (= cell_7_1 7)))
 (let (($x1834 (= cell_7_1 6)))
 (let (($x3553 (= cell_7_1 5)))
 (let (($x659 (= cell_7_1 4)))
 (let (($x1513 (= cell_7_1 3)))
 (let (($x2302 (= cell_7_1 2)))
 (let (($x885 (= cell_7_1 1)))
 (or $x885 $x2302 $x1513 $x659 $x3553 $x1834 $x1124 $x792 $x284)))))))))))
(assert
 (let (($x1536 (= cell_8_1 9)))
 (let (($x11 (= cell_8_1 8)))
 (let (($x2876 (= cell_8_1 7)))
 (let (($x3520 (= cell_8_1 6)))
 (let (($x1751 (= cell_8_1 5)))
 (let (($x415 (= cell_8_1 4)))
 (let (($x2330 (= cell_8_1 3)))
 (let (($x3238 (= cell_8_1 2)))
 (let (($x4512 (= cell_8_1 1)))
 (or $x4512 $x3238 $x2330 $x415 $x1751 $x3520 $x2876 $x11 $x1536)))))))))))
(assert
 (let (($x1671 (= cell_9_1 9)))
 (let (($x2158 (= cell_9_1 8)))
 (let (($x3369 (= cell_9_1 7)))
 (let (($x1992 (= cell_9_1 6)))
 (let (($x3242 (= cell_9_1 5)))
 (let (($x3659 (= cell_9_1 4)))
 (let (($x2405 (= cell_9_1 3)))
 (let (($x2956 (= cell_9_1 2)))
 (let (($x2453 (= cell_9_1 1)))
 (or $x2453 $x2956 $x2405 $x3659 $x3242 $x1992 $x3369 $x2158 $x1671)))))))))))
(assert
 (let (($x2625 (= cell_1_2 9)))
 (let (($x1305 (= cell_1_2 8)))
 (let (($x1859 (= cell_1_2 7)))
 (let (($x805 (= cell_1_2 6)))
 (let (($x26 (= cell_1_2 5)))
 (let (($x3119 (= cell_1_2 4)))
 (let (($x3322 (= cell_1_2 3)))
 (let (($x399 (= cell_1_2 2)))
 (let (($x3184 (= cell_1_2 1)))
 (or $x3184 $x399 $x3322 $x3119 $x26 $x805 $x1859 $x1305 $x2625)))))))))))
(assert
 (let (($x1449 (= cell_2_2 9)))
 (let (($x2682 (= cell_2_2 8)))
 (let (($x305 (= cell_2_2 7)))
 (let (($x2379 (= cell_2_2 6)))
 (let (($x2591 (= cell_2_2 5)))
 (let (($x1285 (= cell_2_2 4)))
 (let (($x1981 (= cell_2_2 3)))
 (let (($x3504 (= cell_2_2 2)))
 (let (($x467 (= cell_2_2 1)))
 (or $x467 $x3504 $x1981 $x1285 $x2591 $x2379 $x305 $x2682 $x1449)))))))))))
(assert
 (let (($x3094 (= cell_3_2 9)))
 (let (($x3077 (= cell_3_2 8)))
 (let (($x2002 (= cell_3_2 7)))
 (let (($x2337 (= cell_3_2 6)))
 (let (($x146 (= cell_3_2 5)))
 (let (($x3500 (= cell_3_2 4)))
 (let (($x1277 (= cell_3_2 3)))
 (let (($x3382 (= cell_3_2 2)))
 (let (($x1819 (= cell_3_2 1)))
 (or $x1819 $x3382 $x1277 $x3500 $x146 $x2337 $x2002 $x3077 $x3094)))))))))))
(assert
 (let (($x3331 (= cell_4_2 2)))
 (or (= cell_4_2 1) $x3331 (= cell_4_2 3) (= cell_4_2 4) (= cell_4_2 5) (= cell_4_2 6) (= cell_4_2 7) (= cell_4_2 8) (= cell_4_2 9))))
(assert
 (let (($x1850 (= cell_5_2 9)))
 (let (($x2593 (= cell_5_2 8)))
 (let (($x2971 (= cell_5_2 7)))
 (let (($x633 (= cell_5_2 6)))
 (let (($x3828 (= cell_5_2 5)))
 (let (($x2613 (= cell_5_2 4)))
 (let (($x2478 (= cell_5_2 3)))
 (let (($x704 (= cell_5_2 2)))
 (let (($x1803 (= cell_5_2 1)))
 (or $x1803 $x704 $x2478 $x2613 $x3828 $x633 $x2971 $x2593 $x1850)))))))))))
(assert
 (let (($x1844 (= cell_6_2 9)))
 (let (($x651 (= cell_6_2 8)))
 (let (($x1283 (= cell_6_2 7)))
 (let (($x9773 (= cell_6_2 6)))
 (let (($x1665 (= cell_6_2 5)))
 (let (($x1818 (= cell_6_2 4)))
 (let (($x689 (= cell_6_2 3)))
 (let (($x3180 (= cell_6_2 2)))
 (let (($x2256 (= cell_6_2 1)))
 (or $x2256 $x3180 $x689 $x1818 $x1665 $x9773 $x1283 $x651 $x1844)))))))))))
(assert
 (let (($x1677 (= cell_7_2 9)))
 (let (($x960 (= cell_7_2 8)))
 (let (($x5613 (= cell_7_2 7)))
 (let (($x1235 (= cell_7_2 6)))
 (let (($x1246 (= cell_7_2 5)))
 (let (($x242 (= cell_7_2 4)))
 (let (($x1832 (= cell_7_2 3)))
 (let (($x606 (= cell_7_2 2)))
 (let (($x112 (= cell_7_2 1)))
 (or $x112 $x606 $x1832 $x242 $x1246 $x1235 $x5613 $x960 $x1677)))))))))))
(assert
 (let (($x3708 (= cell_8_2 1)))
 (or $x3708 (= cell_8_2 2) (= cell_8_2 3) (= cell_8_2 4) (= cell_8_2 5) (= cell_8_2 6) (= cell_8_2 7) (= cell_8_2 8) (= cell_8_2 9))))
(assert
 (let (($x1431 (= cell_9_2 9)))
 (let (($x3048 (= cell_9_2 8)))
 (let (($x3598 (= cell_9_2 7)))
 (let (($x3143 (= cell_9_2 6)))
 (let (($x1026 (= cell_9_2 5)))
 (let (($x1866 (= cell_9_2 4)))
 (let (($x1654 (= cell_9_2 3)))
 (let (($x770 (= cell_9_2 2)))
 (let (($x3124 (= cell_9_2 1)))
 (or $x3124 $x770 $x1654 $x1866 $x1026 $x3143 $x3598 $x3048 $x1431)))))))))))
(assert
 (let (($x63 (= cell_1_3 2)))
 (or (= cell_1_3 1) $x63 (= cell_1_3 3) (= cell_1_3 4) (= cell_1_3 5) (= cell_1_3 6) (= cell_1_3 7) (= cell_1_3 8) (= cell_1_3 9))))
(assert
 (let (($x1437 (= cell_2_3 9)))
 (let (($x3413 (= cell_2_3 8)))
 (let (($x2097 (= cell_2_3 7)))
 (let (($x2838 (= cell_2_3 6)))
 (let (($x1642 (= cell_2_3 5)))
 (let (($x2975 (= cell_2_3 4)))
 (let (($x2514 (= cell_2_3 3)))
 (let (($x1560 (= cell_2_3 2)))
 (let (($x401 (= cell_2_3 1)))
 (or $x401 $x1560 $x2514 $x2975 $x1642 $x2838 $x2097 $x3413 $x1437)))))))))))
(assert
 (let (($x7821 (= cell_3_3 9)))
 (let (($x2029 (= cell_3_3 8)))
 (let (($x3390 (= cell_3_3 7)))
 (let (($x1053 (= cell_3_3 6)))
 (let (($x7589 (= cell_3_3 5)))
 (let (($x1506 (= cell_3_3 4)))
 (let (($x300 (= cell_3_3 3)))
 (let (($x902 (= cell_3_3 2)))
 (let (($x2338 (= cell_3_3 1)))
 (or $x2338 $x902 $x300 $x1506 $x7589 $x1053 $x3390 $x2029 $x7821)))))))))))
(assert
 (let (($x1752 (= cell_4_3 1)))
 (or $x1752 (= cell_4_3 2) (= cell_4_3 3) (= cell_4_3 4) (= cell_4_3 5) (= cell_4_3 6) (= cell_4_3 7) (= cell_4_3 8) (= cell_4_3 9))))
(assert
 (let (($x1191 (= cell_5_3 9)))
 (let (($x1479 (= cell_5_3 8)))
 (let (($x1352 (= cell_5_3 7)))
 (let (($x2832 (= cell_5_3 6)))
 (let (($x3773 (= cell_5_3 5)))
 (let (($x710 (= cell_5_3 4)))
 (let (($x181 (= cell_5_3 3)))
 (let (($x1308 (= cell_5_3 2)))
 (let (($x2497 (= cell_5_3 1)))
 (or $x2497 $x1308 $x181 $x710 $x3773 $x2832 $x1352 $x1479 $x1191)))))))))))
(assert
 (let (($x256 (= cell_6_3 9)))
 (let (($x1918 (= cell_6_3 8)))
 (let (($x1360 (= cell_6_3 7)))
 (let (($x2573 (= cell_6_3 6)))
 (let (($x7563 (= cell_6_3 5)))
 (let (($x192 (= cell_6_3 4)))
 (let (($x3503 (= cell_6_3 3)))
 (let (($x3538 (= cell_6_3 2)))
 (let (($x2488 (= cell_6_3 1)))
 (or $x2488 $x3538 $x3503 $x192 $x7563 $x2573 $x1360 $x1918 $x256)))))))))))
(assert
 (let (($x2115 (= cell_7_3 9)))
 (let (($x1599 (= cell_7_3 8)))
 (let (($x821 (= cell_7_3 7)))
 (let (($x3550 (= cell_7_3 6)))
 (let (($x3010 (= cell_7_3 5)))
 (let (($x2917 (= cell_7_3 4)))
 (let (($x2223 (= cell_7_3 3)))
 (let (($x515 (= cell_7_3 2)))
 (let (($x1950 (= cell_7_3 1)))
 (or $x1950 $x515 $x2223 $x2917 $x3010 $x3550 $x821 $x1599 $x2115)))))))))))
(assert
 (let (($x682 (= cell_8_3 2)))
 (let (($x7760 (= cell_8_3 1)))
 (or $x7760 $x682 (= cell_8_3 3) (= cell_8_3 4) (= cell_8_3 5) (= cell_8_3 6) (= cell_8_3 7) (= cell_8_3 8) (= cell_8_3 9)))))
(assert
 (let (($x452 (= cell_9_3 9)))
 (let (($x2075 (= cell_9_3 8)))
 (let (($x919 (= cell_9_3 7)))
 (let (($x619 (= cell_9_3 6)))
 (let (($x1529 (= cell_9_3 5)))
 (let (($x8615 (= cell_9_3 4)))
 (let (($x2081 (= cell_9_3 3)))
 (let (($x1895 (= cell_9_3 2)))
 (let (($x1791 (= cell_9_3 1)))
 (or $x1791 $x1895 $x2081 $x8615 $x1529 $x619 $x919 $x2075 $x452)))))))))))
(assert
 (let (($x2242 (= cell_1_4 1)))
 (or $x2242 (= cell_1_4 2) (= cell_1_4 3) (= cell_1_4 4) (= cell_1_4 5) (= cell_1_4 6) (= cell_1_4 7) (= cell_1_4 8) (= cell_1_4 9))))
(assert
 (let (($x1393 (= cell_2_4 9)))
 (let (($x508 (= cell_2_4 8)))
 (let (($x3229 (= cell_2_4 7)))
 (let (($x212 (= cell_2_4 6)))
 (let (($x1232 (= cell_2_4 5)))
 (let (($x365 (= cell_2_4 4)))
 (let (($x1828 (= cell_2_4 3)))
 (let (($x1729 (= cell_2_4 2)))
 (let (($x1942 (= cell_2_4 1)))
 (or $x1942 $x1729 $x1828 $x365 $x1232 $x212 $x3229 $x508 $x1393)))))))))))
(assert
 (let (($x1059 (= cell_3_4 9)))
 (let (($x2306 (= cell_3_4 8)))
 (let (($x2184 (= cell_3_4 7)))
 (let (($x1468 (= cell_3_4 6)))
 (let (($x6308 (= cell_3_4 5)))
 (let (($x1542 (= cell_3_4 4)))
 (let (($x2905 (= cell_3_4 3)))
 (let (($x3616 (= cell_3_4 2)))
 (let (($x8549 (= cell_3_4 1)))
 (or $x8549 $x3616 $x2905 $x1542 $x6308 $x1468 $x2184 $x2306 $x1059)))))))))))
(assert
 (let (($x1238 (= cell_4_4 9)))
 (let (($x3604 (= cell_4_4 8)))
 (let (($x2297 (= cell_4_4 7)))
 (let (($x943 (= cell_4_4 6)))
 (let (($x411 (= cell_4_4 5)))
 (let (($x3448 (= cell_4_4 4)))
 (let (($x575 (= cell_4_4 3)))
 (let (($x1022 (= cell_4_4 2)))
 (let (($x2706 (= cell_4_4 1)))
 (or $x2706 $x1022 $x575 $x3448 $x411 $x943 $x2297 $x3604 $x1238)))))))))))
(assert
 (let (($x495 (= cell_5_4 9)))
 (let (($x3034 (= cell_5_4 8)))
 (let (($x1039 (= cell_5_4 7)))
 (let (($x3305 (= cell_5_4 6)))
 (let (($x248 (= cell_5_4 5)))
 (let (($x844 (= cell_5_4 4)))
 (let (($x1303 (= cell_5_4 3)))
 (let (($x1938 (= cell_5_4 2)))
 (let (($x4795 (= cell_5_4 1)))
 (or $x4795 $x1938 $x1303 $x844 $x248 $x3305 $x1039 $x3034 $x495)))))))))))
(assert
 (let (($x1808 (= cell_6_4 2)))
 (or (= cell_6_4 1) $x1808 (= cell_6_4 3) (= cell_6_4 4) (= cell_6_4 5) (= cell_6_4 6) (= cell_6_4 7) (= cell_6_4 8) (= cell_6_4 9))))
(assert
 (let (($x1553 (= cell_7_4 9)))
 (let (($x968 (= cell_7_4 8)))
 (let (($x369 (= cell_7_4 7)))
 (let (($x3326 (= cell_7_4 6)))
 (let (($x3308 (= cell_7_4 5)))
 (let (($x512 (= cell_7_4 4)))
 (let (($x719 (= cell_7_4 3)))
 (let (($x2009 (= cell_7_4 2)))
 (let (($x3697 (= cell_7_4 1)))
 (or $x3697 $x2009 $x719 $x512 $x3308 $x3326 $x369 $x968 $x1553)))))))))))
(assert
 (let (($x974 (= cell_8_4 2)))
 (let (($x2568 (= cell_8_4 1)))
 (or $x2568 $x974 (= cell_8_4 3) (= cell_8_4 4) (= cell_8_4 5) (= cell_8_4 6) (= cell_8_4 7) (= cell_8_4 8) (= cell_8_4 9)))))
(assert
 (let (($x2225 (= cell_9_4 9)))
 (let (($x665 (= cell_9_4 8)))
 (let (($x3428 (= cell_9_4 7)))
 (let (($x118 (= cell_9_4 6)))
 (let (($x1554 (= cell_9_4 5)))
 (let (($x1538 (= cell_9_4 4)))
 (let (($x2273 (= cell_9_4 3)))
 (let (($x3394 (= cell_9_4 2)))
 (let (($x1210 (= cell_9_4 1)))
 (or $x1210 $x3394 $x2273 $x1538 $x1554 $x118 $x3428 $x665 $x2225)))))))))))
(assert
 (let (($x3965 (= cell_1_5 9)))
 (let (($x2147 (= cell_1_5 8)))
 (let (($x332 (= cell_1_5 7)))
 (let (($x2580 (= cell_1_5 6)))
 (let (($x2371 (= cell_1_5 5)))
 (let (($x1114 (= cell_1_5 4)))
 (let (($x751 (= cell_1_5 3)))
 (let (($x1131 (= cell_1_5 2)))
 (let (($x2523 (= cell_1_5 1)))
 (or $x2523 $x1131 $x751 $x1114 $x2371 $x2580 $x332 $x2147 $x3965)))))))))))
(assert
 (let (($x1724 (= cell_2_5 9)))
 (let (($x3348 (= cell_2_5 8)))
 (let (($x2691 (= cell_2_5 7)))
 (let (($x8973 (= cell_2_5 6)))
 (let (($x1999 (= cell_2_5 5)))
 (let (($x1392 (= cell_2_5 4)))
 (let (($x2134 (= cell_2_5 3)))
 (let (($x3821 (= cell_2_5 2)))
 (let (($x9460 (= cell_2_5 1)))
 (or $x9460 $x3821 $x2134 $x1392 $x1999 $x8973 $x2691 $x3348 $x1724)))))))))))
(assert
 (let (($x2470 (= cell_3_5 9)))
 (let (($x2360 (= cell_3_5 8)))
 (let (($x969 (= cell_3_5 7)))
 (let (($x2263 (= cell_3_5 6)))
 (let (($x2142 (= cell_3_5 5)))
 (let (($x9193 (= cell_3_5 4)))
 (let (($x2209 (= cell_3_5 3)))
 (let (($x3658 (= cell_3_5 2)))
 (let (($x3466 (= cell_3_5 1)))
 (or $x3466 $x3658 $x2209 $x9193 $x2142 $x2263 $x969 $x2360 $x2470)))))))))))
(assert
 (let (($x1398 (= cell_4_5 9)))
 (let (($x1120 (= cell_4_5 8)))
 (let (($x5723 (= cell_4_5 7)))
 (let (($x3245 (= cell_4_5 6)))
 (let (($x2034 (= cell_4_5 5)))
 (let (($x7076 (= cell_4_5 4)))
 (let (($x1856 (= cell_4_5 3)))
 (let (($x1629 (= cell_4_5 2)))
 (let (($x348 (= cell_4_5 1)))
 (or $x348 $x1629 $x1856 $x7076 $x2034 $x3245 $x5723 $x1120 $x1398)))))))))))
(assert
 (let (($x857 (= cell_5_5 9)))
 (let (($x2588 (= cell_5_5 8)))
 (let (($x2317 (= cell_5_5 7)))
 (let (($x221 (= cell_5_5 6)))
 (let (($x1858 (= cell_5_5 5)))
 (let (($x347 (= cell_5_5 4)))
 (let (($x2313 (= cell_5_5 3)))
 (let (($x320 (= cell_5_5 2)))
 (let (($x3582 (= cell_5_5 1)))
 (or $x3582 $x320 $x2313 $x347 $x1858 $x221 $x2317 $x2588 $x857)))))))))))
(assert
 (let (($x2178 (= cell_6_5 9)))
 (let (($x1730 (= cell_6_5 8)))
 (let (($x3139 (= cell_6_5 7)))
 (let (($x917 (= cell_6_5 6)))
 (let (($x3060 (= cell_6_5 5)))
 (let (($x1422 (= cell_6_5 4)))
 (let (($x3600 (= cell_6_5 3)))
 (let (($x142 (= cell_6_5 2)))
 (let (($x1640 (= cell_6_5 1)))
 (or $x1640 $x142 $x3600 $x1422 $x3060 $x917 $x3139 $x1730 $x2178)))))))))))
(assert
 (let (($x2216 (= cell_7_5 1)))
 (or $x2216 (= cell_7_5 2) (= cell_7_5 3) (= cell_7_5 4) (= cell_7_5 5) (= cell_7_5 6) (= cell_7_5 7) (= cell_7_5 8) (= cell_7_5 9))))
(assert
 (let (($x487 (= cell_8_5 1)))
 (or $x487 (= cell_8_5 2) (= cell_8_5 3) (= cell_8_5 4) (= cell_8_5 5) (= cell_8_5 6) (= cell_8_5 7) (= cell_8_5 8) (= cell_8_5 9))))
(assert
 (let (($x2603 (= cell_9_5 9)))
 (let (($x3646 (= cell_9_5 8)))
 (let (($x2072 (= cell_9_5 7)))
 (let (($x1761 (= cell_9_5 6)))
 (let (($x3425 (= cell_9_5 5)))
 (let (($x1977 (= cell_9_5 4)))
 (let (($x1129 (= cell_9_5 3)))
 (let (($x2993 (= cell_9_5 2)))
 (let (($x590 (= cell_9_5 1)))
 (or $x590 $x2993 $x1129 $x1977 $x3425 $x1761 $x2072 $x3646 $x2603)))))))))))
(assert
 (let (($x3748 (= cell_1_6 9)))
 (let (($x3544 (= cell_1_6 8)))
 (let (($x121 (= cell_1_6 7)))
 (let (($x2740 (= cell_1_6 6)))
 (let (($x782 (= cell_1_6 5)))
 (let (($x910 (= cell_1_6 4)))
 (let (($x3795 (= cell_1_6 3)))
 (let (($x2621 (= cell_1_6 2)))
 (let (($x3157 (= cell_1_6 1)))
 (or $x3157 $x2621 $x3795 $x910 $x782 $x2740 $x121 $x3544 $x3748)))))))))))
(assert
 (let (($x458 (= cell_2_6 9)))
 (let (($x1184 (= cell_2_6 8)))
 (let (($x678 (= cell_2_6 7)))
 (let (($x3325 (= cell_2_6 6)))
 (let (($x622 (= cell_2_6 5)))
 (let (($x551 (= cell_2_6 4)))
 (let (($x985 (= cell_2_6 3)))
 (let (($x285 (= cell_2_6 2)))
 (let (($x3115 (= cell_2_6 1)))
 (or $x3115 $x285 $x985 $x551 $x622 $x3325 $x678 $x1184 $x458)))))))))))
(assert
 (let (($x852 (= cell_3_6 2)))
 (or (= cell_3_6 1) $x852 (= cell_3_6 3) (= cell_3_6 4) (= cell_3_6 5) (= cell_3_6 6) (= cell_3_6 7) (= cell_3_6 8) (= cell_3_6 9))))
(assert
 (let (($x33 (= cell_4_6 9)))
 (let (($x1069 (= cell_4_6 8)))
 (let (($x149 (= cell_4_6 7)))
 (let (($x1344 (= cell_4_6 6)))
 (let (($x5300 (= cell_4_6 5)))
 (let (($x3419 (= cell_4_6 4)))
 (let (($x1806 (= cell_4_6 3)))
 (let (($x9 (= cell_4_6 2)))
 (let (($x1156 (= cell_4_6 1)))
 (or $x1156 $x9 $x1806 $x3419 $x5300 $x1344 $x149 $x1069 $x33)))))))))))
(assert
 (let (($x3815 (= cell_5_6 1)))
 (or $x3815 (= cell_5_6 2) (= cell_5_6 3) (= cell_5_6 4) (= cell_5_6 5) (= cell_5_6 6) (= cell_5_6 7) (= cell_5_6 8) (= cell_5_6 9))))
(assert
 (let (($x237 (= cell_6_6 9)))
 (let (($x3648 (= cell_6_6 8)))
 (let (($x1092 (= cell_6_6 7)))
 (let (($x2614 (= cell_6_6 6)))
 (let (($x882 (= cell_6_6 5)))
 (let (($x228 (= cell_6_6 4)))
 (let (($x2875 (= cell_6_6 3)))
 (let (($x1664 (= cell_6_6 2)))
 (let (($x3566 (= cell_6_6 1)))
 (or $x3566 $x1664 $x2875 $x228 $x882 $x2614 $x1092 $x3648 $x237)))))))))))
(assert
 (let (($x1326 (= cell_7_6 2)))
 (let (($x3248 (= cell_7_6 1)))
 (or $x3248 $x1326 (= cell_7_6 3) (= cell_7_6 4) (= cell_7_6 5) (= cell_7_6 6) (= cell_7_6 7) (= cell_7_6 8) (= cell_7_6 9)))))
(assert
 (let (($x2300 (= cell_8_6 2)))
 (let (($x5803 (= cell_8_6 1)))
 (or $x5803 $x2300 (= cell_8_6 3) (= cell_8_6 4) (= cell_8_6 5) (= cell_8_6 6) (= cell_8_6 7) (= cell_8_6 8) (= cell_8_6 9)))))
(assert
 (let (($x3568 (= cell_9_6 9)))
 (let (($x3088 (= cell_9_6 8)))
 (let (($x877 (= cell_9_6 7)))
 (let (($x3154 (= cell_9_6 6)))
 (let (($x501 (= cell_9_6 5)))
 (let (($x2567 (= cell_9_6 4)))
 (let (($x1932 (= cell_9_6 3)))
 (let (($x3171 (= cell_9_6 2)))
 (let (($x1571 (= cell_9_6 1)))
 (or $x1571 $x3171 $x1932 $x2567 $x501 $x3154 $x877 $x3088 $x3568)))))))))))
(assert
 (let (($x1854 (= cell_1_7 9)))
 (let (($x836 (= cell_1_7 8)))
 (let (($x362 (= cell_1_7 7)))
 (let (($x222 (= cell_1_7 6)))
 (let (($x1863 (= cell_1_7 5)))
 (let (($x3128 (= cell_1_7 4)))
 (let (($x2376 (= cell_1_7 3)))
 (let (($x521 (= cell_1_7 2)))
 (let (($x2490 (= cell_1_7 1)))
 (or $x2490 $x521 $x2376 $x3128 $x1863 $x222 $x362 $x836 $x1854)))))))))))
(assert
 (let (($x293 (= cell_2_7 1)))
 (or $x293 (= cell_2_7 2) (= cell_2_7 3) (= cell_2_7 4) (= cell_2_7 5) (= cell_2_7 6) (= cell_2_7 7) (= cell_2_7 8) (= cell_2_7 9))))
(assert
 (let (($x1501 (= cell_3_7 2)))
 (let (($x1786 (= cell_3_7 1)))
 (or $x1786 $x1501 (= cell_3_7 3) (= cell_3_7 4) (= cell_3_7 5) (= cell_3_7 6) (= cell_3_7 7) (= cell_3_7 8) (= cell_3_7 9)))))
(assert
 (let (($x485 (= cell_4_7 9)))
 (let (($x724 (= cell_4_7 8)))
 (let (($x829 (= cell_4_7 7)))
 (let (($x2463 (= cell_4_7 6)))
 (let (($x2056 (= cell_4_7 5)))
 (let (($x1769 (= cell_4_7 4)))
 (let (($x2031 (= cell_4_7 3)))
 (let (($x3342 (= cell_4_7 2)))
 (let (($x3118 (= cell_4_7 1)))
 (or $x3118 $x3342 $x2031 $x1769 $x2056 $x2463 $x829 $x724 $x485)))))))))))
(assert
 (let (($x1141 (= cell_5_7 9)))
 (let (($x1534 (= cell_5_7 8)))
 (let (($x2433 (= cell_5_7 7)))
 (let (($x594 (= cell_5_7 6)))
 (let (($x3676 (= cell_5_7 5)))
 (let (($x1967 (= cell_5_7 4)))
 (let (($x3719 (= cell_5_7 3)))
 (let (($x3525 (= cell_5_7 2)))
 (let (($x666 (= cell_5_7 1)))
 (or $x666 $x3525 $x3719 $x1967 $x3676 $x594 $x2433 $x1534 $x1141)))))))))))
(assert
 (let (($x671 (= cell_6_7 9)))
 (let (($x1747 (= cell_6_7 8)))
 (let (($x1003 (= cell_6_7 7)))
 (let (($x52 (= cell_6_7 6)))
 (let (($x900 (= cell_6_7 5)))
 (let (($x804 (= cell_6_7 4)))
 (let (($x3567 (= cell_6_7 3)))
 (let (($x471 (= cell_6_7 2)))
 (let (($x872 (= cell_6_7 1)))
 (or $x872 $x471 $x3567 $x804 $x900 $x52 $x1003 $x1747 $x671)))))))))))
(assert
 (let (($x614 (= cell_7_7 9)))
 (let (($x2697 (= cell_7_7 8)))
 (let (($x536 (= cell_7_7 7)))
 (let (($x1523 (= cell_7_7 6)))
 (let (($x664 (= cell_7_7 5)))
 (let (($x2086 (= cell_7_7 4)))
 (let (($x3230 (= cell_7_7 3)))
 (let (($x195 (= cell_7_7 2)))
 (let (($x860 (= cell_7_7 1)))
 (or $x860 $x195 $x3230 $x2086 $x664 $x1523 $x536 $x2697 $x614)))))))))))
(assert
 (let (($x2102 (= cell_8_7 9)))
 (let (($x1582 (= cell_8_7 8)))
 (let (($x547 (= cell_8_7 7)))
 (let (($x351 (= cell_8_7 6)))
 (let (($x843 (= cell_8_7 5)))
 (let (($x2465 (= cell_8_7 4)))
 (let (($x2899 (= cell_8_7 3)))
 (let (($x1689 (= cell_8_7 2)))
 (let (($x3834 (= cell_8_7 1)))
 (or $x3834 $x1689 $x2899 $x2465 $x843 $x351 $x547 $x1582 $x2102)))))))))))
(assert
 (let (($x3457 (= cell_9_7 9)))
 (let (($x3066 (= cell_9_7 8)))
 (let (($x3319 (= cell_9_7 7)))
 (let (($x1389 (= cell_9_7 6)))
 (let (($x3675 (= cell_9_7 5)))
 (let (($x439 (= cell_9_7 4)))
 (let (($x247 (= cell_9_7 3)))
 (let (($x1378 (= cell_9_7 2)))
 (let (($x4684 (= cell_9_7 1)))
 (or $x4684 $x1378 $x247 $x439 $x3675 $x1389 $x3319 $x3066 $x3457)))))))))))
(assert
 (let (($x3105 (= cell_1_8 9)))
 (let (($x842 (= cell_1_8 8)))
 (let (($x2186 (= cell_1_8 7)))
 (let (($x341 (= cell_1_8 6)))
 (let (($x3355 (= cell_1_8 5)))
 (let (($x1670 (= cell_1_8 4)))
 (let (($x3560 (= cell_1_8 3)))
 (let (($x2674 (= cell_1_8 2)))
 (let (($x3665 (= cell_1_8 1)))
 (or $x3665 $x2674 $x3560 $x1670 $x3355 $x341 $x2186 $x842 $x3105)))))))))))
(assert
 (let (($x912 (= cell_2_8 2)))
 (or (= cell_2_8 1) $x912 (= cell_2_8 3) (= cell_2_8 4) (= cell_2_8 5) (= cell_2_8 6) (= cell_2_8 7) (= cell_2_8 8) (= cell_2_8 9))))
(assert
 (let (($x3026 (= cell_3_8 9)))
 (let (($x1394 (= cell_3_8 8)))
 (let (($x2005 (= cell_3_8 7)))
 (let (($x599 (= cell_3_8 6)))
 (let (($x3458 (= cell_3_8 5)))
 (let (($x408 (= cell_3_8 4)))
 (let (($x2799 (= cell_3_8 3)))
 (let (($x2937 (= cell_3_8 2)))
 (let (($x2974 (= cell_3_8 1)))
 (or $x2974 $x2937 $x2799 $x408 $x3458 $x599 $x2005 $x1394 $x3026)))))))))))
(assert
 (let (($x549 (= cell_4_8 9)))
 (let (($x2396 (= cell_4_8 8)))
 (let (($x3030 (= cell_4_8 7)))
 (let (($x278 (= cell_4_8 6)))
 (let (($x3310 (= cell_4_8 5)))
 (let (($x863 (= cell_4_8 4)))
 (let (($x2946 (= cell_4_8 3)))
 (let (($x2566 (= cell_4_8 2)))
 (let (($x8374 (= cell_4_8 1)))
 (or $x8374 $x2566 $x2946 $x863 $x3310 $x278 $x3030 $x2396 $x549)))))))))))
(assert
 (let (($x5609 (= cell_5_8 9)))
 (let (($x1144 (= cell_5_8 8)))
 (let (($x870 (= cell_5_8 7)))
 (let (($x1750 (= cell_5_8 6)))
 (let (($x766 (= cell_5_8 5)))
 (let (($x227 (= cell_5_8 4)))
 (let (($x3155 (= cell_5_8 3)))
 (let (($x2555 (= cell_5_8 2)))
 (let (($x510 (= cell_5_8 1)))
 (or $x510 $x2555 $x3155 $x227 $x766 $x1750 $x870 $x1144 $x5609)))))))))))
(assert
 (let (($x784 (= cell_6_8 1)))
 (or $x784 (= cell_6_8 2) (= cell_6_8 3) (= cell_6_8 4) (= cell_6_8 5) (= cell_6_8 6) (= cell_6_8 7) (= cell_6_8 8) (= cell_6_8 9))))
(assert
 (let (($x6844 (= cell_7_8 9)))
 (let (($x183 (= cell_7_8 8)))
 (let (($x3431 (= cell_7_8 7)))
 (let (($x1348 (= cell_7_8 6)))
 (let (($x3433 (= cell_7_8 5)))
 (let (($x2635 (= cell_7_8 4)))
 (let (($x2257 (= cell_7_8 3)))
 (let (($x3614 (= cell_7_8 2)))
 (let (($x771 (= cell_7_8 1)))
 (or $x771 $x3614 $x2257 $x2635 $x3433 $x1348 $x3431 $x183 $x6844)))))))))))
(assert
 (let (($x5895 (= cell_8_8 9)))
 (let (($x2353 (= cell_8_8 8)))
 (let (($x1350 (= cell_8_8 7)))
 (let (($x1287 (= cell_8_8 6)))
 (let (($x620 (= cell_8_8 5)))
 (let (($x1490 (= cell_8_8 4)))
 (let (($x2033 (= cell_8_8 3)))
 (let (($x1067 (= cell_8_8 2)))
 (let (($x796 (= cell_8_8 1)))
 (or $x796 $x1067 $x2033 $x1490 $x620 $x1287 $x1350 $x2353 $x5895)))))))))))
(assert
 (let (($x1742 (= cell_9_8 9)))
 (let (($x1595 (= cell_9_8 8)))
 (let (($x3314 (= cell_9_8 7)))
 (let (($x2948 (= cell_9_8 6)))
 (let (($x3590 (= cell_9_8 5)))
 (let (($x681 (= cell_9_8 4)))
 (let (($x1456 (= cell_9_8 3)))
 (let (($x674 (= cell_9_8 2)))
 (let (($x3725 (= cell_9_8 1)))
 (or $x3725 $x674 $x1456 $x681 $x3590 $x2948 $x3314 $x1595 $x1742)))))))))))
(assert
 (let (($x2833 (= cell_1_9 9)))
 (let (($x3800 (= cell_1_9 8)))
 (let (($x1939 (= cell_1_9 7)))
 (let (($x2028 (= cell_1_9 6)))
 (let (($x2558 (= cell_1_9 5)))
 (let (($x1920 (= cell_1_9 4)))
 (let (($x325 (= cell_1_9 3)))
 (let (($x2222 (= cell_1_9 2)))
 (let (($x2064 (= cell_1_9 1)))
 (or $x2064 $x2222 $x325 $x1920 $x2558 $x2028 $x1939 $x3800 $x2833)))))))))))
(assert
 (let (($x8972 (= cell_2_9 9)))
 (let (($x3836 (= cell_2_9 8)))
 (let (($x3770 (= cell_2_9 7)))
 (let (($x25 (= cell_2_9 6)))
 (let (($x1219 (= cell_2_9 5)))
 (let (($x2958 (= cell_2_9 4)))
 (let (($x1342 (= cell_2_9 3)))
 (let (($x4760 (= cell_2_9 2)))
 (let (($x1687 (= cell_2_9 1)))
 (or $x1687 $x4760 $x1342 $x2958 $x1219 $x25 $x3770 $x3836 $x8972)))))))))))
(assert
 (let (($x1040 (= cell_3_9 9)))
 (let (($x3775 (= cell_3_9 8)))
 (let (($x1738 (= cell_3_9 7)))
 (let (($x1990 (= cell_3_9 6)))
 (let (($x2798 (= cell_3_9 5)))
 (let (($x3172 (= cell_3_9 4)))
 (let (($x1829 (= cell_3_9 3)))
 (let (($x9532 (= cell_3_9 2)))
 (let (($x1943 (= cell_3_9 1)))
 (or $x1943 $x9532 $x1829 $x3172 $x2798 $x1990 $x1738 $x3775 $x1040)))))))))))
(assert
 (let (($x1301 (= cell_4_9 9)))
 (let (($x2659 (= cell_4_9 8)))
 (let (($x2389 (= cell_4_9 7)))
 (let (($x1635 (= cell_4_9 6)))
 (let (($x3073 (= cell_4_9 5)))
 (let (($x2545 (= cell_4_9 4)))
 (let (($x1272 (= cell_4_9 3)))
 (let (($x1652 (= cell_4_9 2)))
 (let (($x2227 (= cell_4_9 1)))
 (or $x2227 $x1652 $x1272 $x2545 $x3073 $x1635 $x2389 $x2659 $x1301)))))))))))
(assert
 (let (($x1104 (= cell_5_9 2)))
 (or (= cell_5_9 1) $x1104 (= cell_5_9 3) (= cell_5_9 4) (= cell_5_9 5) (= cell_5_9 6) (= cell_5_9 7) (= cell_5_9 8) (= cell_5_9 9))))
(assert
 (let (($x1504 (= cell_6_9 9)))
 (let (($x1213 (= cell_6_9 8)))
 (let (($x1481 (= cell_6_9 7)))
 (let (($x2704 (= cell_6_9 6)))
 (let (($x1018 (= cell_6_9 5)))
 (let (($x53 (= cell_6_9 4)))
 (let (($x3166 (= cell_6_9 3)))
 (let (($x3678 (= cell_6_9 2)))
 (let (($x39 (= cell_6_9 1)))
 (or $x39 $x3678 $x3166 $x53 $x1018 $x2704 $x1481 $x1213 $x1504)))))))))))
(assert
 (let (($x3486 (= cell_7_9 9)))
 (let (($x1175 (= cell_7_9 8)))
 (let (($x307 (= cell_7_9 7)))
 (let (($x1430 (= cell_7_9 6)))
 (let (($x2908 (= cell_7_9 5)))
 (let (($x2546 (= cell_7_9 4)))
 (let (($x2199 (= cell_7_9 3)))
 (let (($x3750 (= cell_7_9 2)))
 (let (($x1587 (= cell_7_9 1)))
 (or $x1587 $x3750 $x2199 $x2546 $x2908 $x1430 $x307 $x1175 $x3486)))))))))))
(assert
 (let (($x2010 (= cell_8_9 9)))
 (let (($x1024 (= cell_8_9 8)))
 (let (($x2992 (= cell_8_9 7)))
 (let (($x114 (= cell_8_9 6)))
 (let (($x3321 (= cell_8_9 5)))
 (let (($x1837 (= cell_8_9 4)))
 (let (($x3703 (= cell_8_9 3)))
 (let (($x1792 (= cell_8_9 2)))
 (let (($x139 (= cell_8_9 1)))
 (or $x139 $x1792 $x3703 $x1837 $x3321 $x114 $x2992 $x1024 $x2010)))))))))))
(assert
 (let (($x445 (= cell_9_9 1)))
 (or $x445 (= cell_9_9 2) (= cell_9_9 3) (= cell_9_9 4) (= cell_9_9 5) (= cell_9_9 6) (= cell_9_9 7) (= cell_9_9 8) (= cell_9_9 9))))
(assert
 (and (distinct cell_1_1 cell_1_2 cell_1_3 cell_1_4 cell_1_5 cell_1_6 cell_1_7 cell_1_8 cell_1_9) true))
(assert
 (and (distinct cell_2_1 cell_2_2 cell_2_3 cell_2_4 cell_2_5 cell_2_6 cell_2_7 cell_2_8 cell_2_9) true))
(assert
 (and (distinct cell_3_1 cell_3_2 cell_3_3 cell_3_4 cell_3_5 cell_3_6 cell_3_7 cell_3_8 cell_3_9) true))
(assert
 (and (distinct cell_4_1 cell_4_2 cell_4_3 cell_4_4 cell_4_5 cell_4_6 cell_4_7 cell_4_8 cell_4_9) true))
(assert
 (and (distinct cell_5_1 cell_5_2 cell_5_3 cell_5_4 cell_5_5 cell_5_6 cell_5_7 cell_5_8 cell_5_9) true))
(assert
 (and (distinct cell_6_1 cell_6_2 cell_6_3 cell_6_4 cell_6_5 cell_6_6 cell_6_7 cell_6_8 cell_6_9) true))
(assert
 (and (distinct cell_7_1 cell_7_2 cell_7_3 cell_7_4 cell_7_5 cell_7_6 cell_7_7 cell_7_8 cell_7_9) true))
(assert
 (and (distinct cell_8_1 cell_8_2 cell_8_3 cell_8_4 cell_8_5 cell_8_6 cell_8_7 cell_8_8 cell_8_9) true))
(assert
 (and (distinct cell_9_1 cell_9_2 cell_9_3 cell_9_4 cell_9_5 cell_9_6 cell_9_7 cell_9_8 cell_9_9) true))
(assert
 (and (distinct cell_1_1 cell_2_1 cell_3_1 cell_4_1 cell_5_1 cell_6_1 cell_7_1 cell_8_1 cell_9_1) true))
(assert
 (and (distinct cell_1_2 cell_2_2 cell_3_2 cell_4_2 cell_5_2 cell_6_2 cell_7_2 cell_8_2 cell_9_2) true))
(assert
 (and (distinct cell_1_3 cell_2_3 cell_3_3 cell_4_3 cell_5_3 cell_6_3 cell_7_3 cell_8_3 cell_9_3) true))
(assert
 (and (distinct cell_1_4 cell_2_4 cell_3_4 cell_4_4 cell_5_4 cell_6_4 cell_7_4 cell_8_4 cell_9_4) true))
(assert
 (and (distinct cell_1_5 cell_2_5 cell_3_5 cell_4_5 cell_5_5 cell_6_5 cell_7_5 cell_8_5 cell_9_5) true))
(assert
 (and (distinct cell_1_6 cell_2_6 cell_3_6 cell_4_6 cell_5_6 cell_6_6 cell_7_6 cell_8_6 cell_9_6) true))
(assert
 (and (distinct cell_1_7 cell_2_7 cell_3_7 cell_4_7 cell_5_7 cell_6_7 cell_7_7 cell_8_7 cell_9_7) true))
(assert
 (and (distinct cell_1_8 cell_2_8 cell_3_8 cell_4_8 cell_5_8 cell_6_8 cell_7_8 cell_8_8 cell_9_8) true))
(assert
 (and (distinct cell_1_9 cell_2_9 cell_3_9 cell_4_9 cell_5_9 cell_6_9 cell_7_9 cell_8_9 cell_9_9) true))
(assert
 (and (distinct cell_1_1 cell_1_2 cell_1_3 cell_2_1 cell_2_2 cell_2_3 cell_3_1 cell_3_2 cell_3_3) true))
(assert
 (and (distinct cell_1_4 cell_1_5 cell_1_6 cell_2_4 cell_2_5 cell_2_6 cell_3_4 cell_3_5 cell_3_6) true))
(assert
 (and (distinct cell_1_7 cell_1_8 cell_1_9 cell_2_7 cell_2_8 cell_2_9 cell_3_7 cell_3_8 cell_3_9) true))
(assert
 (and (distinct cell_4_1 cell_4_2 cell_4_3 cell_5_1 cell_5_2 cell_5_3 cell_6_1 cell_6_2 cell_6_3) true))
(assert
 (and (distinct cell_4_4 cell_4_5 cell_4_6 cell_5_4 cell_5_5 cell_5_6 cell_6_4 cell_6_5 cell_6_6) true))
(assert
 (and (distinct cell_4_7 cell_4_8 cell_4_9 cell_5_7 cell_5_8 cell_5_9 cell_6_7 cell_6_8 cell_6_9) true))
(assert
 (and (distinct cell_7_1 cell_7_2 cell_7_3 cell_8_1 cell_8_2 cell_8_3 cell_9_1 cell_9_2 cell_9_3) true))
(assert
 (and (distinct cell_7_4 cell_7_5 cell_7_6 cell_8_4 cell_8_5 cell_8_6 cell_9_4 cell_9_5 cell_9_6) true))
(assert
 (and (distinct cell_7_7 cell_7_8 cell_7_9 cell_8_7 cell_8_8 cell_8_9 cell_9_7 cell_9_8 cell_9_9) true))
(assert
 (let (($x3713 (and (distinct cell_5_9 cell_6_8 cell_7_7 cell_8_6) true)))
 (let (($x482 (and (distinct cell_2_9 cell_3_8 cell_4_7 cell_5_6 cell_6_5 cell_7_4 cell_8_3 cell_9_2) true)))
 (let (($x1489 (and (distinct cell_1_8 cell_2_7 cell_3_6 cell_4_5 cell_5_4 cell_6_3 cell_7_2 cell_8_1) true)))
 (let (($x77 (and (distinct cell_1_5 cell_2_4 cell_3_3 cell_4_2) true)))
 (let (($x2255 (and (distinct cell_5_1 cell_6_2 cell_7_3 cell_8_4) true)))
 (let (($x1539 (and (distinct cell_2_1 cell_3_2 cell_4_3 cell_5_4 cell_6_5 cell_7_6 cell_8_7 cell_9_8) true)))
 (let (($x2012 (and (distinct cell_1_2 cell_2_3 cell_3_4 cell_4_5 cell_5_6 cell_6_7 cell_7_8 cell_8_9) true)))
 (let (($x1306 (and (distinct cell_1_5 cell_2_6 cell_3_7 cell_4_8) true)))
 (and $x1306 $x2012 $x1539 $x2255 $x77 $x1489 $x482 $x3713))))))))))
(assert
 (= cell_7_1 2))
(check-sat)
